c defined variables: 67 68 69 70 71 72 73 76 77 78 79 80 81 82 83 84 87 88 89 92 93 94 95 96 97 98 99 100 101 104 105 106 107 108 109 110 111 112 113 116 117 118 119 120 121 122 123 124 125 128 129 130 131 132 133 134 135 136 137 140 141 142 143 144 145 146 147 148 149 152 153 154 155 156 157 158 159 160 161 164 165 166 167 168 169 170 171 172 173 176 177 178 179 180 181 182 183 184 185 188 189 190 191 192 193 194 195 196 197 200 201 202 203 204 205 206 207 208 209 212 213 214 215 216 217 218 219 220 221 224 225 226 227 228 229 230 231 232 233 236 237 238 239 240 241 242 243 244 245 248 249 250 251 252 253 254 255 256 257 260 261 262 263 264 265 266 267 268 269 272 273 274 275 276 277 278 279 280 281 284 285 286 287 288 289 290 291 292 293 296 297 298 299 300 301 302 303 304 305 308 309 310 311 312 313 314 315 316 317 318 319 320 321 
p cnf 1295 1811
a 21 22 23 24 25 26 27 28 29 30 31 32 33 34 35 36 37 38 39 40 41 42 43 44 45 46 47 48 49 50 51 52 53 54 55 56 57 58 59 60 61 62 63 64 0
e 74 75 85 86 90 91 102 103 114 115 126 127 138 139 150 151 162 163 174 175 186 187 198 199 210 211 222 223 234 235 246 247 258 259 270 271 282 283 294 295 306 307 67 68 69 70 71 72 73 76 77 78 79 80 81 82 83 84 87 88 89 92 93 94 95 96 97 98 99 100 101 104 105 106 107 108 109 110 111 112 113 116 117 118 119 120 121 122 123 124 125 128 129 130 131 132 133 134 135 136 137 140 141 142 143 144 145 146 147 148 149 152 153 154 155 156 157 158 159 160 161 164 165 166 167 168 169 170 171 172 173 176 177 178 179 180 181 182 183 184 185 188 189 190 191 192 193 194 195 196 197 200 201 202 203 204 205 206 207 208 209 212 213 214 215 216 217 218 219 220 221 224 225 226 227 228 229 230 231 232 233 236 237 238 239 240 241 242 243 244 245 248 249 250 251 252 253 254 255 256 257 260 261 262 263 264 265 266 267 268 269 272 273 274 275 276 277 278 279 280 281 284 285 286 287 288 289 290 291 292 293 296 297 298 299 300 301 302 303 304 305 308 309 310 311 312 313 314 315 316 317 318 319 320 321 1089 1090 1091 1092 1093 1094 1095 1096 1097 1098 1099 1100 1101 1102 1103 1104 1105 1106 1107 1108 1109 1110 1111 1112 1113 1114 1115 1116 1117 1118 1119 1120 1121 1122 1123 1124 1125 1126 1127 1128 1129 1130 1131 1132 1133 1134 1135 1136 1137 1138 1139 1140 1141 1142 1143 1144 1145 1146 1147 1148 1149 1150 1151 1152 1153 1154 1155 1156 1157 1158 1159 1160 1161 1162 1163 1164 1165 1166 1167 1168 1169 1170 1171 1172 1173 1174 1175 1176 1177 1178 1179 1180 1181 1182 1183 1184 1185 1186 1187 1188 1189 1190 1191 1192 1193 1194 1195 1196 1197 1198 1199 1200 1201 1202 1203 1204 1205 1206 1207 1208 1209 1210 1211 1212 1213 1214 1215 1216 1217 1218 1219 1220 1221 1222 1223 1224 1225 1226 1227 1228 1229 1230 1231 1232 1233 1234 1235 1236 1237 1238 1239 1240 1241 1242 1243 1244 1245 1246 1247 1248 1249 1250 1251 1252 1253 1254 1255 1256 1257 1258 1259 1260 1261 1262 1263 1264 1265 1266 1267 1268 1269 1270 1271 1272 1273 1274 1275 1276 1277 1278 1279 1280 1281 1282 1283 1284 1285 1286 1287 1288 1289 1290 1291 1292 1293 1294 1295 0
d 1 21 22 23 24 25 26 27 28 29 30 31 32 33 34 35 36 37 38 39 40 41 42 43 44 45 46 47 48 49 50 51 52 53 54 55 56 57 58 59 60 61 62 0
d 2 21 22 23 24 25 26 27 28 29 30 31 32 33 34 35 36 37 38 39 40 41 42 43 44 45 46 47 48 49 50 51 52 53 54 55 56 57 58 59 60 61 62 0
d 3 21 22 23 24 25 26 27 28 29 30 31 32 33 34 35 36 37 38 39 40 41 42 43 44 45 46 47 48 49 50 51 52 53 54 55 56 57 58 59 60 61 62 0
d 4 21 22 23 24 25 26 27 28 29 30 31 32 33 34 35 36 37 38 39 40 41 42 43 44 45 46 47 48 49 50 51 52 53 54 55 56 57 58 59 60 61 62 0
d 5 21 22 23 24 25 26 27 28 29 30 31 32 33 34 35 36 37 38 39 40 41 42 43 44 45 46 47 48 49 50 51 52 53 54 55 56 57 58 59 60 61 62 0
d 6 21 22 23 24 25 26 27 28 29 30 31 32 33 34 35 36 37 38 39 40 41 42 43 44 45 46 47 48 49 50 51 52 53 54 55 56 57 58 59 60 61 62 0
d 7 21 22 23 24 25 26 27 28 29 30 31 32 33 34 35 36 37 38 39 40 41 42 43 44 45 46 47 48 49 50 51 52 53 54 55 56 57 58 59 60 61 62 0
d 8 21 22 23 24 25 26 27 28 29 30 31 32 33 34 35 36 37 38 39 40 41 42 43 44 45 46 47 48 49 50 51 52 53 54 55 56 57 58 59 60 61 62 0
d 9 21 22 23 24 25 26 27 28 29 30 31 32 33 34 35 36 37 38 39 40 41 42 43 44 45 46 47 48 49 50 51 52 53 54 55 56 57 58 59 60 61 62 0
d 10 21 22 23 24 25 26 27 28 29 30 31 32 33 34 35 36 37 38 39 40 41 42 43 44 45 46 47 48 49 50 51 52 53 54 55 56 57 58 59 60 61 62 0
d 11 21 22 23 24 25 26 27 28 29 30 31 32 33 34 35 36 37 38 39 40 41 42 43 44 45 46 47 48 49 50 51 52 53 54 55 56 57 58 59 60 61 62 0
d 12 21 22 23 24 25 26 27 28 29 30 31 32 33 34 35 36 37 38 39 40 41 42 43 44 45 46 47 48 49 50 51 52 53 54 55 56 57 58 59 60 61 62 0
d 13 21 22 23 24 25 26 27 28 29 30 31 32 33 34 35 36 37 38 39 40 41 42 43 44 45 46 47 48 49 50 51 52 53 54 55 56 57 58 59 60 61 62 0
d 14 21 22 23 24 25 26 27 28 29 30 31 32 33 34 35 36 37 38 39 40 41 42 43 44 45 46 47 48 49 50 51 52 53 54 55 56 57 58 59 60 61 62 0
d 15 21 22 23 24 25 26 27 28 29 30 31 32 33 34 35 36 37 38 39 40 41 42 43 44 45 46 47 48 49 50 51 52 53 54 55 56 57 58 59 60 61 62 0
d 16 21 22 23 24 25 26 27 28 29 30 31 32 33 34 35 36 37 38 39 40 41 42 43 44 45 46 47 48 49 50 51 52 53 54 55 56 57 58 59 60 61 62 0
d 17 21 22 23 24 25 26 27 28 29 30 31 32 33 34 35 36 37 38 39 40 41 42 43 44 45 46 47 48 49 50 51 52 53 54 55 56 57 58 59 60 61 62 0
d 18 21 22 23 24 25 26 27 28 29 30 31 32 33 34 35 36 37 38 39 40 41 42 43 44 45 46 47 48 49 50 51 52 53 54 55 56 57 58 59 60 61 62 0
d 19 21 22 23 24 25 26 27 28 29 30 31 32 33 34 35 36 37 38 39 40 41 42 43 44 45 46 47 48 49 50 51 52 53 54 55 56 57 58 59 60 61 62 0
d 20 21 22 23 24 25 26 27 28 29 30 31 32 33 34 35 36 37 38 39 40 41 42 43 44 45 46 47 48 49 50 51 52 53 54 55 56 57 58 59 60 61 62 0
d 65 61 62 0
d 66 63 64 0
1090 -67 0
-1090 67 0
1091 -68 0
-1091 68 0
1092 -69 0
-1092 69 0
1093 -70 0
-1093 70 0
1094 -71 0
-1094 71 0
1095 -72 0
-1095 72 0
1096 -73 0
-1096 73 0
1097 -76 0
-1097 76 0
-1089 -77 0
1089 77 0
1098 -78 0
-1098 78 0
1099 -79 0
-1099 79 0
1100 -80 0
-1100 80 0
1101 -81 0
-1101 81 0
-1102 -82 0
1102 82 0
1103 -83 0
-1103 83 0
1104 -84 0
-1104 84 0
1105 -87 0
-1105 87 0
1106 -88 0
-1106 88 0
-1107 -89 0
1107 89 0
1108 -92 0
-1108 92 0
1109 -93 0
-1109 93 0
1110 -94 0
-1110 94 0
-1111 -95 0
1111 95 0
1112 -96 0
-1112 96 0
1113 -97 0
-1113 97 0
1114 -98 0
-1114 98 0
-1115 -99 0
1115 99 0
1116 -100 0
-1116 100 0
1117 -101 0
-1117 101 0
1118 -104 0
-1118 104 0
1119 -105 0
-1119 105 0
1120 -106 0
-1120 106 0
-1121 -107 0
1121 107 0
1122 -108 0
-1122 108 0
1123 -109 0
-1123 109 0
1124 -110 0
-1124 110 0
-1125 -111 0
1125 111 0
1126 -112 0
-1126 112 0
1127 -113 0
-1127 113 0
1128 -116 0
-1128 116 0
1129 -117 0
-1129 117 0
1130 -118 0
-1130 118 0
-1131 -119 0
1131 119 0
1132 -120 0
-1132 120 0
1133 -121 0
-1133 121 0
1134 -122 0
-1134 122 0
-1135 -123 0
1135 123 0
1136 -124 0
-1136 124 0
1137 -125 0
-1137 125 0
1138 -128 0
-1138 128 0
1139 -129 0
-1139 129 0
1140 -130 0
-1140 130 0
-1141 -131 0
1141 131 0
1142 -132 0
-1142 132 0
1143 -133 0
-1143 133 0
1144 -134 0
-1144 134 0
-1145 -135 0
1145 135 0
1146 -136 0
-1146 136 0
1147 -137 0
-1147 137 0
1148 -140 0
-1148 140 0
1149 -141 0
-1149 141 0
1150 -142 0
-1150 142 0
-1151 -143 0
1151 143 0
1152 -144 0
-1152 144 0
1153 -145 0
-1153 145 0
1154 -146 0
-1154 146 0
-1155 -147 0
1155 147 0
1156 -148 0
-1156 148 0
1157 -149 0
-1157 149 0
1158 -152 0
-1158 152 0
1159 -153 0
-1159 153 0
1160 -154 0
-1160 154 0
-1161 -155 0
1161 155 0
1162 -156 0
-1162 156 0
1163 -157 0
-1163 157 0
1164 -158 0
-1164 158 0
-1165 -159 0
1165 159 0
1166 -160 0
-1166 160 0
1167 -161 0
-1167 161 0
1168 -164 0
-1168 164 0
1169 -165 0
-1169 165 0
1170 -166 0
-1170 166 0
-1171 -167 0
1171 167 0
1172 -168 0
-1172 168 0
1173 -169 0
-1173 169 0
1174 -170 0
-1174 170 0
-1175 -171 0
1175 171 0
1176 -172 0
-1176 172 0
1177 -173 0
-1177 173 0
1178 -176 0
-1178 176 0
1179 -177 0
-1179 177 0
1180 -178 0
-1180 178 0
-1181 -179 0
1181 179 0
1182 -180 0
-1182 180 0
1183 -181 0
-1183 181 0
1184 -182 0
-1184 182 0
-1185 -183 0
1185 183 0
1186 -184 0
-1186 184 0
1187 -185 0
-1187 185 0
1188 -188 0
-1188 188 0
1189 -189 0
-1189 189 0
1190 -190 0
-1190 190 0
-1191 -191 0
1191 191 0
1192 -192 0
-1192 192 0
1193 -193 0
-1193 193 0
1194 -194 0
-1194 194 0
-1195 -195 0
1195 195 0
1196 -196 0
-1196 196 0
1197 -197 0
-1197 197 0
1198 -200 0
-1198 200 0
1199 -201 0
-1199 201 0
1200 -202 0
-1200 202 0
-1201 -203 0
1201 203 0
1202 -204 0
-1202 204 0
1203 -205 0
-1203 205 0
1204 -206 0
-1204 206 0
-1205 -207 0
1205 207 0
1206 -208 0
-1206 208 0
1207 -209 0
-1207 209 0
1208 -212 0
-1208 212 0
1209 -213 0
-1209 213 0
1210 -214 0
-1210 214 0
-1211 -215 0
1211 215 0
1212 -216 0
-1212 216 0
1213 -217 0
-1213 217 0
1214 -218 0
-1214 218 0
-1215 -219 0
1215 219 0
1216 -220 0
-1216 220 0
1217 -221 0
-1217 221 0
1218 -224 0
-1218 224 0
1219 -225 0
-1219 225 0
1220 -226 0
-1220 226 0
-1221 -227 0
1221 227 0
1222 -228 0
-1222 228 0
1223 -229 0
-1223 229 0
1224 -230 0
-1224 230 0
-1225 -231 0
1225 231 0
1226 -232 0
-1226 232 0
1227 -233 0
-1227 233 0
1228 -236 0
-1228 236 0
1229 -237 0
-1229 237 0
1230 -238 0
-1230 238 0
-1231 -239 0
1231 239 0
1232 -240 0
-1232 240 0
1233 -241 0
-1233 241 0
1234 -242 0
-1234 242 0
-1235 -243 0
1235 243 0
1236 -244 0
-1236 244 0
1237 -245 0
-1237 245 0
1238 -248 0
-1238 248 0
1239 -249 0
-1239 249 0
1240 -250 0
-1240 250 0
-1241 -251 0
1241 251 0
1242 -252 0
-1242 252 0
1243 -253 0
-1243 253 0
1244 -254 0
-1244 254 0
-1245 -255 0
1245 255 0
1246 -256 0
-1246 256 0
1247 -257 0
-1247 257 0
1248 -260 0
-1248 260 0
1249 -261 0
-1249 261 0
1250 -262 0
-1250 262 0
-1251 -263 0
1251 263 0
1252 -264 0
-1252 264 0
1253 -265 0
-1253 265 0
1254 -266 0
-1254 266 0
-1255 -267 0
1255 267 0
1256 -268 0
-1256 268 0
1257 -269 0
-1257 269 0
1258 -272 0
-1258 272 0
1259 -273 0
-1259 273 0
1260 -274 0
-1260 274 0
-1261 -275 0
1261 275 0
1262 -276 0
-1262 276 0
1263 -277 0
-1263 277 0
1264 -278 0
-1264 278 0
-1265 -279 0
1265 279 0
1266 -280 0
-1266 280 0
1267 -281 0
-1267 281 0
1268 -284 0
-1268 284 0
1269 -285 0
-1269 285 0
1270 -286 0
-1270 286 0
-1271 -287 0
1271 287 0
1272 -288 0
-1272 288 0
1273 -289 0
-1273 289 0
1274 -290 0
-1274 290 0
-1275 -291 0
1275 291 0
1276 -292 0
-1276 292 0
1277 -293 0
-1277 293 0
1278 -296 0
-1278 296 0
1279 -297 0
-1279 297 0
1280 -298 0
-1280 298 0
-1281 -299 0
1281 299 0
1282 -300 0
-1282 300 0
1283 -301 0
-1283 301 0
1284 -302 0
-1284 302 0
-1285 -303 0
1285 303 0
1286 -304 0
-1286 304 0
1287 -305 0
-1287 305 0
1288 -308 0
-1288 308 0
1289 -309 0
-1289 309 0
1290 -310 0
-1290 310 0
1291 -311 0
-1291 311 0
1292 -312 0
-1292 312 0
1293 -313 0
-1293 313 0
-1089 -314 0
1089 314 0
1294 -315 0
-1294 315 0
-1089 -316 0
1089 316 0
1295 -317 0
-1295 317 0
-1089 -318 0
1089 318 0
1089 -319 0
-1089 319 0
1089 -320 0
-1089 320 0
1089 -321 0
-1089 321 0
-67 -63 0
-67 61 0
67 63 -61 0
-68 63 0
-68 -61 0
68 -63 61 0
-69 -67 0
-69 -68 0
69 67 68 0
-70 -64 0
-70 62 0
70 64 -62 0
-71 64 0
-71 -62 0
71 -64 62 0
-72 -70 0
-72 -71 0
72 70 71 0
-73 69 0
-73 72 0
73 -69 -72 0
-74 66 0
-74 -65 0
74 -66 65 0
-75 -66 0
-75 65 0
75 66 -65 0
-76 -74 0
-76 -75 0
76 74 75 0
-77 73 0
-77 -76 0
77 -73 76 0
-78 41 0
-78 21 0
78 -41 -21 0
-79 42 0
-79 78 0
79 -42 -78 0
-80 -42 0
-80 -78 0
80 42 78 0
-81 -79 0
-81 -80 0
81 79 80 0
82 -22 0
82 81 0
-82 22 -81 0
-83 22 0
-83 -81 0
83 -22 81 0
-84 82 0
-84 -83 0
84 -82 83 0
-85 2 0
-85 84 0
85 -2 -84 0
-86 -2 0
-86 -84 0
86 2 84 0
-87 -85 0
-87 -86 0
87 85 86 0
-88 -41 0
-88 -21 0
88 41 21 0
89 -78 0
89 -88 0
-89 78 88 0
-90 1 0
-90 89 0
90 -1 -89 0
-91 -1 0
-91 -89 0
91 1 89 0
-92 -90 0
-92 -91 0
92 90 91 0
-93 87 0
-93 92 0
93 -87 -92 0
-94 -22 0
-94 -79 0
94 22 79 0
95 -80 0
95 -94 0
-95 80 94 0
-96 43 0
-96 -95 0
96 -43 95 0
-97 -43 0
-97 95 0
97 43 -95 0
-98 -96 0
-98 -97 0
98 96 97 0
99 -23 0
99 98 0
-99 23 -98 0
-100 23 0
-100 -98 0
100 -23 98 0
-101 99 0
-101 -100 0
101 -99 100 0
-102 3 0
-102 101 0
102 -3 -101 0
-103 -3 0
-103 -101 0
103 3 101 0
-104 -102 0
-104 -103 0
104 102 103 0
-105 93 0
-105 104 0
105 -93 -104 0
-106 -23 0
-106 -96 0
106 23 96 0
107 -97 0
107 -106 0
-107 97 106 0
-108 44 0
-108 -107 0
108 -44 107 0
-109 -44 0
-109 107 0
109 44 -107 0
-110 -108 0
-110 -109 0
110 108 109 0
111 -24 0
111 110 0
-111 24 -110 0
-112 24 0
-112 -110 0
112 -24 110 0
-113 111 0
-113 -112 0
113 -111 112 0
-114 4 0
-114 113 0
114 -4 -113 0
-115 -4 0
-115 -113 0
115 4 113 0
-116 -114 0
-116 -115 0
116 114 115 0
-117 105 0
-117 116 0
117 -105 -116 0
-118 -24 0
-118 -108 0
118 24 108 0
119 -109 0
119 -118 0
-119 109 118 0
-120 45 0
-120 -119 0
120 -45 119 0
-121 -45 0
-121 119 0
121 45 -119 0
-122 -120 0
-122 -121 0
122 120 121 0
123 -25 0
123 122 0
-123 25 -122 0
-124 25 0
-124 -122 0
124 -25 122 0
-125 123 0
-125 -124 0
125 -123 124 0
-126 5 0
-126 125 0
126 -5 -125 0
-127 -5 0
-127 -125 0
127 5 125 0
-128 -126 0
-128 -127 0
128 126 127 0
-129 117 0
-129 128 0
129 -117 -128 0
-130 -25 0
-130 -120 0
130 25 120 0
131 -121 0
131 -130 0
-131 121 130 0
-132 46 0
-132 -131 0
132 -46 131 0
-133 -46 0
-133 131 0
133 46 -131 0
-134 -132 0
-134 -133 0
134 132 133 0
135 -26 0
135 134 0
-135 26 -134 0
-136 26 0
-136 -134 0
136 -26 134 0
-137 135 0
-137 -136 0
137 -135 136 0
-138 6 0
-138 137 0
138 -6 -137 0
-139 -6 0
-139 -137 0
139 6 137 0
-140 -138 0
-140 -139 0
140 138 139 0
-141 129 0
-141 140 0
141 -129 -140 0
-142 -26 0
-142 -132 0
142 26 132 0
143 -133 0
143 -142 0
-143 133 142 0
-144 47 0
-144 -143 0
144 -47 143 0
-145 -47 0
-145 143 0
145 47 -143 0
-146 -144 0
-146 -145 0
146 144 145 0
147 -27 0
147 146 0
-147 27 -146 0
-148 27 0
-148 -146 0
148 -27 146 0
-149 147 0
-149 -148 0
149 -147 148 0
-150 7 0
-150 149 0
150 -7 -149 0
-151 -7 0
-151 -149 0
151 7 149 0
-152 -150 0
-152 -151 0
152 150 151 0
-153 141 0
-153 152 0
153 -141 -152 0
-154 -27 0
-154 -144 0
154 27 144 0
155 -145 0
155 -154 0
-155 145 154 0
-156 48 0
-156 -155 0
156 -48 155 0
-157 -48 0
-157 155 0
157 48 -155 0
-158 -156 0
-158 -157 0
158 156 157 0
159 -28 0
159 158 0
-159 28 -158 0
-160 28 0
-160 -158 0
160 -28 158 0
-161 159 0
-161 -160 0
161 -159 160 0
-162 8 0
-162 161 0
162 -8 -161 0
-163 -8 0
-163 -161 0
163 8 161 0
-164 -162 0
-164 -163 0
164 162 163 0
-165 153 0
-165 164 0
165 -153 -164 0
-166 -28 0
-166 -156 0
166 28 156 0
167 -157 0
167 -166 0
-167 157 166 0
-168 49 0
-168 -167 0
168 -49 167 0
-169 -49 0
-169 167 0
169 49 -167 0
-170 -168 0
-170 -169 0
170 168 169 0
171 -29 0
171 170 0
-171 29 -170 0
-172 29 0
-172 -170 0
172 -29 170 0
-173 171 0
-173 -172 0
173 -171 172 0
-174 9 0
-174 173 0
174 -9 -173 0
-175 -9 0
-175 -173 0
175 9 173 0
-176 -174 0
-176 -175 0
176 174 175 0
-177 165 0
-177 176 0
177 -165 -176 0
-178 -29 0
-178 -168 0
178 29 168 0
179 -169 0
179 -178 0
-179 169 178 0
-180 50 0
-180 -179 0
180 -50 179 0
-181 -50 0
-181 179 0
181 50 -179 0
-182 -180 0
-182 -181 0
182 180 181 0
183 -30 0
183 182 0
-183 30 -182 0
-184 30 0
-184 -182 0
184 -30 182 0
-185 183 0
-185 -184 0
185 -183 184 0
-186 10 0
-186 185 0
186 -10 -185 0
-187 -10 0
-187 -185 0
187 10 185 0
-188 -186 0
-188 -187 0
188 186 187 0
-189 177 0
-189 188 0
189 -177 -188 0
-190 -30 0
-190 -180 0
190 30 180 0
191 -181 0
191 -190 0
-191 181 190 0
-192 51 0
-192 -191 0
192 -51 191 0
-193 -51 0
-193 191 0
193 51 -191 0
-194 -192 0
-194 -193 0
194 192 193 0
195 -31 0
195 194 0
-195 31 -194 0
-196 31 0
-196 -194 0
196 -31 194 0
-197 195 0
-197 -196 0
197 -195 196 0
-198 11 0
-198 197 0
198 -11 -197 0
-199 -11 0
-199 -197 0
199 11 197 0
-200 -198 0
-200 -199 0
200 198 199 0
-201 189 0
-201 200 0
201 -189 -200 0
-202 -31 0
-202 -192 0
202 31 192 0
203 -193 0
203 -202 0
-203 193 202 0
-204 52 0
-204 -203 0
204 -52 203 0
-205 -52 0
-205 203 0
205 52 -203 0
-206 -204 0
-206 -205 0
206 204 205 0
207 -32 0
207 206 0
-207 32 -206 0
-208 32 0
-208 -206 0
208 -32 206 0
-209 207 0
-209 -208 0
209 -207 208 0
-210 12 0
-210 209 0
210 -12 -209 0
-211 -12 0
-211 -209 0
211 12 209 0
-212 -210 0
-212 -211 0
212 210 211 0
-213 201 0
-213 212 0
213 -201 -212 0
-214 -32 0
-214 -204 0
214 32 204 0
215 -205 0
215 -214 0
-215 205 214 0
-216 53 0
-216 -215 0
216 -53 215 0
-217 -53 0
-217 215 0
217 53 -215 0
-218 -216 0
-218 -217 0
218 216 217 0
219 -33 0
219 218 0
-219 33 -218 0
-220 33 0
-220 -218 0
220 -33 218 0
-221 219 0
-221 -220 0
221 -219 220 0
-222 13 0
-222 221 0
222 -13 -221 0
-223 -13 0
-223 -221 0
223 13 221 0
-224 -222 0
-224 -223 0
224 222 223 0
-225 213 0
-225 224 0
225 -213 -224 0
-226 -33 0
-226 -216 0
226 33 216 0
227 -217 0
227 -226 0
-227 217 226 0
-228 54 0
-228 -227 0
228 -54 227 0
-229 -54 0
-229 227 0
229 54 -227 0
-230 -228 0
-230 -229 0
230 228 229 0
231 -34 0
231 230 0
-231 34 -230 0
-232 34 0
-232 -230 0
232 -34 230 0
-233 231 0
-233 -232 0
233 -231 232 0
-234 14 0
-234 233 0
234 -14 -233 0
-235 -14 0
-235 -233 0
235 14 233 0
-236 -234 0
-236 -235 0
236 234 235 0
-237 225 0
-237 236 0
237 -225 -236 0
-238 -34 0
-238 -228 0
238 34 228 0
239 -229 0
239 -238 0
-239 229 238 0
-240 55 0
-240 -239 0
240 -55 239 0
-241 -55 0
-241 239 0
241 55 -239 0
-242 -240 0
-242 -241 0
242 240 241 0
243 -35 0
243 242 0
-243 35 -242 0
-244 35 0
-244 -242 0
244 -35 242 0
-245 243 0
-245 -244 0
245 -243 244 0
-246 15 0
-246 245 0
246 -15 -245 0
-247 -15 0
-247 -245 0
247 15 245 0
-248 -246 0
-248 -247 0
248 246 247 0
-249 237 0
-249 248 0
249 -237 -248 0
-250 -35 0
-250 -240 0
250 35 240 0
251 -241 0
251 -250 0
-251 241 250 0
-252 56 0
-252 -251 0
252 -56 251 0
-253 -56 0
-253 251 0
253 56 -251 0
-254 -252 0
-254 -253 0
254 252 253 0
255 -36 0
255 254 0
-255 36 -254 0
-256 36 0
-256 -254 0
256 -36 254 0
-257 255 0
-257 -256 0
257 -255 256 0
-258 16 0
-258 257 0
258 -16 -257 0
-259 -16 0
-259 -257 0
259 16 257 0
-260 -258 0
-260 -259 0
260 258 259 0
-261 249 0
-261 260 0
261 -249 -260 0
-262 -36 0
-262 -252 0
262 36 252 0
263 -253 0
263 -262 0
-263 253 262 0
-264 57 0
-264 -263 0
264 -57 263 0
-265 -57 0
-265 263 0
265 57 -263 0
-266 -264 0
-266 -265 0
266 264 265 0
267 -37 0
267 266 0
-267 37 -266 0
-268 37 0
-268 -266 0
268 -37 266 0
-269 267 0
-269 -268 0
269 -267 268 0
-270 17 0
-270 269 0
270 -17 -269 0
-271 -17 0
-271 -269 0
271 17 269 0
-272 -270 0
-272 -271 0
272 270 271 0
-273 261 0
-273 272 0
273 -261 -272 0
-274 -37 0
-274 -264 0
274 37 264 0
275 -265 0
275 -274 0
-275 265 274 0
-276 58 0
-276 -275 0
276 -58 275 0
-277 -58 0
-277 275 0
277 58 -275 0
-278 -276 0
-278 -277 0
278 276 277 0
279 -38 0
279 278 0
-279 38 -278 0
-280 38 0
-280 -278 0
280 -38 278 0
-281 279 0
-281 -280 0
281 -279 280 0
-282 18 0
-282 281 0
282 -18 -281 0
-283 -18 0
-283 -281 0
283 18 281 0
-284 -282 0
-284 -283 0
284 282 283 0
-285 273 0
-285 284 0
285 -273 -284 0
-286 -38 0
-286 -276 0
286 38 276 0
287 -277 0
287 -286 0
-287 277 286 0
-288 59 0
-288 -287 0
288 -59 287 0
-289 -59 0
-289 287 0
289 59 -287 0
-290 -288 0
-290 -289 0
290 288 289 0
291 -39 0
291 290 0
-291 39 -290 0
-292 39 0
-292 -290 0
292 -39 290 0
-293 291 0
-293 -292 0
293 -291 292 0
-294 19 0
-294 293 0
294 -19 -293 0
-295 -19 0
-295 -293 0
295 19 293 0
-296 -294 0
-296 -295 0
296 294 295 0
-297 285 0
-297 296 0
297 -285 -296 0
-298 -39 0
-298 -288 0
298 39 288 0
299 -289 0
299 -298 0
-299 289 298 0
-300 -60 0
-300 299 0
300 60 -299 0
-301 60 0
-301 -299 0
301 -60 299 0
-302 -300 0
-302 -301 0
302 300 301 0
303 -40 0
303 302 0
-303 40 -302 0
-304 40 0
-304 -302 0
304 -40 302 0
-305 303 0
-305 -304 0
305 -303 304 0
-306 20 0
-306 305 0
306 -20 -305 0
-307 -20 0
-307 -305 0
307 20 305 0
-308 -306 0
-308 -307 0
308 306 307 0
-309 297 0
-309 308 0
309 -297 -308 0
-310 -64 0
-310 -309 0
310 64 309 0
-311 64 0
-311 309 0
311 -64 -309 0
-312 -310 0
-312 -311 0
312 310 311 0
-313 63 0
-313 312 0
313 -63 -312 0
-314 313 0
-314 75 0
314 -313 -75 0
-315 62 0
-315 61 0
315 -62 -61 0
-316 65 0
-316 315 0
316 -65 -315 0
-317 -62 0
-317 -61 0
317 62 61 0
-318 -65 0
-318 317 0
318 65 -317 0
-319 -316 0
-319 -318 0
319 316 318 0
-320 -314 0
-320 319 0
320 314 -319 0
-321 -77 0
-321 320 0
321 77 -320 0
321 0
1089 0
61 -1090 0
-63 -1090 0
-61 63 1090 0
-61 -1091 0
63 -1091 0
61 -63 1091 0
-67 -1092 0
-68 -1092 0
67 68 1092 0
62 -1093 0
-64 -1093 0
-62 64 1093 0
-62 -1094 0
64 -1094 0
62 -64 1094 0
-70 -1095 0
-71 -1095 0
70 71 1095 0
69 -1096 0
72 -1096 0
-69 -72 1096 0
-74 -1097 0
-75 -1097 0
74 75 1097 0
21 -1098 0
41 -1098 0
-21 -41 1098 0
42 -1099 0
78 -1099 0
-42 -78 1099 0
-42 -1100 0
-78 -1100 0
42 78 1100 0
-79 -1101 0
-80 -1101 0
79 80 1101 0
-22 -1102 0
81 -1102 0
22 -81 1102 0
22 -1103 0
-81 -1103 0
-22 81 1103 0
82 -1104 0
-83 -1104 0
-82 83 1104 0
-85 -1105 0
-86 -1105 0
85 86 1105 0
-21 -1106 0
-41 -1106 0
21 41 1106 0
-78 -1107 0
-88 -1107 0
78 88 1107 0
-90 -1108 0
-91 -1108 0
90 91 1108 0
87 -1109 0
92 -1109 0
-87 -92 1109 0
-22 -1110 0
-79 -1110 0
22 79 1110 0
-80 -1111 0
-94 -1111 0
80 94 1111 0
43 -1112 0
-95 -1112 0
-43 95 1112 0
-43 -1113 0
95 -1113 0
43 -95 1113 0
-96 -1114 0
-97 -1114 0
96 97 1114 0
-23 -1115 0
98 -1115 0
23 -98 1115 0
23 -1116 0
-98 -1116 0
-23 98 1116 0
99 -1117 0
-100 -1117 0
-99 100 1117 0
-102 -1118 0
-103 -1118 0
102 103 1118 0
93 -1119 0
104 -1119 0
-93 -104 1119 0
-23 -1120 0
-96 -1120 0
23 96 1120 0
-97 -1121 0
-106 -1121 0
97 106 1121 0
44 -1122 0
-107 -1122 0
-44 107 1122 0
-44 -1123 0
107 -1123 0
44 -107 1123 0
-108 -1124 0
-109 -1124 0
108 109 1124 0
-24 -1125 0
110 -1125 0
24 -110 1125 0
24 -1126 0
-110 -1126 0
-24 110 1126 0
111 -1127 0
-112 -1127 0
-111 112 1127 0
-114 -1128 0
-115 -1128 0
114 115 1128 0
105 -1129 0
116 -1129 0
-105 -116 1129 0
-24 -1130 0
-108 -1130 0
24 108 1130 0
-109 -1131 0
-118 -1131 0
109 118 1131 0
45 -1132 0
-119 -1132 0
-45 119 1132 0
-45 -1133 0
119 -1133 0
45 -119 1133 0
-120 -1134 0
-121 -1134 0
120 121 1134 0
-25 -1135 0
122 -1135 0
25 -122 1135 0
25 -1136 0
-122 -1136 0
-25 122 1136 0
123 -1137 0
-124 -1137 0
-123 124 1137 0
-126 -1138 0
-127 -1138 0
126 127 1138 0
117 -1139 0
128 -1139 0
-117 -128 1139 0
-25 -1140 0
-120 -1140 0
25 120 1140 0
-121 -1141 0
-130 -1141 0
121 130 1141 0
46 -1142 0
-131 -1142 0
-46 131 1142 0
-46 -1143 0
131 -1143 0
46 -131 1143 0
-132 -1144 0
-133 -1144 0
132 133 1144 0
-26 -1145 0
134 -1145 0
26 -134 1145 0
26 -1146 0
-134 -1146 0
-26 134 1146 0
135 -1147 0
-136 -1147 0
-135 136 1147 0
-138 -1148 0
-139 -1148 0
138 139 1148 0
129 -1149 0
140 -1149 0
-129 -140 1149 0
-26 -1150 0
-132 -1150 0
26 132 1150 0
-133 -1151 0
-142 -1151 0
133 142 1151 0
47 -1152 0
-143 -1152 0
-47 143 1152 0
-47 -1153 0
143 -1153 0
47 -143 1153 0
-144 -1154 0
-145 -1154 0
144 145 1154 0
-27 -1155 0
146 -1155 0
27 -146 1155 0
27 -1156 0
-146 -1156 0
-27 146 1156 0
147 -1157 0
-148 -1157 0
-147 148 1157 0
-150 -1158 0
-151 -1158 0
150 151 1158 0
141 -1159 0
152 -1159 0
-141 -152 1159 0
-27 -1160 0
-144 -1160 0
27 144 1160 0
-145 -1161 0
-154 -1161 0
145 154 1161 0
48 -1162 0
-155 -1162 0
-48 155 1162 0
-48 -1163 0
155 -1163 0
48 -155 1163 0
-156 -1164 0
-157 -1164 0
156 157 1164 0
-28 -1165 0
158 -1165 0
28 -158 1165 0
28 -1166 0
-158 -1166 0
-28 158 1166 0
159 -1167 0
-160 -1167 0
-159 160 1167 0
-162 -1168 0
-163 -1168 0
162 163 1168 0
153 -1169 0
164 -1169 0
-153 -164 1169 0
-28 -1170 0
-156 -1170 0
28 156 1170 0
-157 -1171 0
-166 -1171 0
157 166 1171 0
49 -1172 0
-167 -1172 0
-49 167 1172 0
-49 -1173 0
167 -1173 0
49 -167 1173 0
-168 -1174 0
-169 -1174 0
168 169 1174 0
-29 -1175 0
170 -1175 0
29 -170 1175 0
29 -1176 0
-170 -1176 0
-29 170 1176 0
171 -1177 0
-172 -1177 0
-171 172 1177 0
-174 -1178 0
-175 -1178 0
174 175 1178 0
165 -1179 0
176 -1179 0
-165 -176 1179 0
-29 -1180 0
-168 -1180 0
29 168 1180 0
-169 -1181 0
-178 -1181 0
169 178 1181 0
50 -1182 0
-179 -1182 0
-50 179 1182 0
-50 -1183 0
179 -1183 0
50 -179 1183 0
-180 -1184 0
-181 -1184 0
180 181 1184 0
-30 -1185 0
182 -1185 0
30 -182 1185 0
30 -1186 0
-182 -1186 0
-30 182 1186 0
183 -1187 0
-184 -1187 0
-183 184 1187 0
-186 -1188 0
-187 -1188 0
186 187 1188 0
177 -1189 0
188 -1189 0
-177 -188 1189 0
-30 -1190 0
-180 -1190 0
30 180 1190 0
-181 -1191 0
-190 -1191 0
181 190 1191 0
51 -1192 0
-191 -1192 0
-51 191 1192 0
-51 -1193 0
191 -1193 0
51 -191 1193 0
-192 -1194 0
-193 -1194 0
192 193 1194 0
-31 -1195 0
194 -1195 0
31 -194 1195 0
31 -1196 0
-194 -1196 0
-31 194 1196 0
195 -1197 0
-196 -1197 0
-195 196 1197 0
-198 -1198 0
-199 -1198 0
198 199 1198 0
189 -1199 0
200 -1199 0
-189 -200 1199 0
-31 -1200 0
-192 -1200 0
31 192 1200 0
-193 -1201 0
-202 -1201 0
193 202 1201 0
52 -1202 0
-203 -1202 0
-52 203 1202 0
-52 -1203 0
203 -1203 0
52 -203 1203 0
-204 -1204 0
-205 -1204 0
204 205 1204 0
-32 -1205 0
206 -1205 0
32 -206 1205 0
32 -1206 0
-206 -1206 0
-32 206 1206 0
207 -1207 0
-208 -1207 0
-207 208 1207 0
-210 -1208 0
-211 -1208 0
210 211 1208 0
201 -1209 0
212 -1209 0
-201 -212 1209 0
-32 -1210 0
-204 -1210 0
32 204 1210 0
-205 -1211 0
-214 -1211 0
205 214 1211 0
53 -1212 0
-215 -1212 0
-53 215 1212 0
-53 -1213 0
215 -1213 0
53 -215 1213 0
-216 -1214 0
-217 -1214 0
216 217 1214 0
-33 -1215 0
218 -1215 0
33 -218 1215 0
33 -1216 0
-218 -1216 0
-33 218 1216 0
219 -1217 0
-220 -1217 0
-219 220 1217 0
-222 -1218 0
-223 -1218 0
222 223 1218 0
213 -1219 0
224 -1219 0
-213 -224 1219 0
-33 -1220 0
-216 -1220 0
33 216 1220 0
-217 -1221 0
-226 -1221 0
217 226 1221 0
54 -1222 0
-227 -1222 0
-54 227 1222 0
-54 -1223 0
227 -1223 0
54 -227 1223 0
-228 -1224 0
-229 -1224 0
228 229 1224 0
-34 -1225 0
230 -1225 0
34 -230 1225 0
34 -1226 0
-230 -1226 0
-34 230 1226 0
231 -1227 0
-232 -1227 0
-231 232 1227 0
-234 -1228 0
-235 -1228 0
234 235 1228 0
225 -1229 0
236 -1229 0
-225 -236 1229 0
-34 -1230 0
-228 -1230 0
34 228 1230 0
-229 -1231 0
-238 -1231 0
229 238 1231 0
55 -1232 0
-239 -1232 0
-55 239 1232 0
-55 -1233 0
239 -1233 0
55 -239 1233 0
-240 -1234 0
-241 -1234 0
240 241 1234 0
-35 -1235 0
242 -1235 0
35 -242 1235 0
35 -1236 0
-242 -1236 0
-35 242 1236 0
243 -1237 0
-244 -1237 0
-243 244 1237 0
-246 -1238 0
-247 -1238 0
246 247 1238 0
237 -1239 0
248 -1239 0
-237 -248 1239 0
-35 -1240 0
-240 -1240 0
35 240 1240 0
-241 -1241 0
-250 -1241 0
241 250 1241 0
56 -1242 0
-251 -1242 0
-56 251 1242 0
-56 -1243 0
251 -1243 0
56 -251 1243 0
-252 -1244 0
-253 -1244 0
252 253 1244 0
-36 -1245 0
254 -1245 0
36 -254 1245 0
36 -1246 0
-254 -1246 0
-36 254 1246 0
255 -1247 0
-256 -1247 0
-255 256 1247 0
-258 -1248 0
-259 -1248 0
258 259 1248 0
249 -1249 0
260 -1249 0
-249 -260 1249 0
-36 -1250 0
-252 -1250 0
36 252 1250 0
-253 -1251 0
-262 -1251 0
253 262 1251 0
57 -1252 0
-263 -1252 0
-57 263 1252 0
-57 -1253 0
263 -1253 0
57 -263 1253 0
-264 -1254 0
-265 -1254 0
264 265 1254 0
-37 -1255 0
266 -1255 0
37 -266 1255 0
37 -1256 0
-266 -1256 0
-37 266 1256 0
267 -1257 0
-268 -1257 0
-267 268 1257 0
-270 -1258 0
-271 -1258 0
270 271 1258 0
261 -1259 0
272 -1259 0
-261 -272 1259 0
-37 -1260 0
-264 -1260 0
37 264 1260 0
-265 -1261 0
-274 -1261 0
265 274 1261 0
58 -1262 0
-275 -1262 0
-58 275 1262 0
-58 -1263 0
275 -1263 0
58 -275 1263 0
-276 -1264 0
-277 -1264 0
276 277 1264 0
-38 -1265 0
278 -1265 0
38 -278 1265 0
38 -1266 0
-278 -1266 0
-38 278 1266 0
279 -1267 0
-280 -1267 0
-279 280 1267 0
-282 -1268 0
-283 -1268 0
282 283 1268 0
273 -1269 0
284 -1269 0
-273 -284 1269 0
-38 -1270 0
-276 -1270 0
38 276 1270 0
-277 -1271 0
-286 -1271 0
277 286 1271 0
59 -1272 0
-287 -1272 0
-59 287 1272 0
-59 -1273 0
287 -1273 0
59 -287 1273 0
-288 -1274 0
-289 -1274 0
288 289 1274 0
-39 -1275 0
290 -1275 0
39 -290 1275 0
39 -1276 0
-290 -1276 0
-39 290 1276 0
291 -1277 0
-292 -1277 0
-291 292 1277 0
-294 -1278 0
-295 -1278 0
294 295 1278 0
285 -1279 0
296 -1279 0
-285 -296 1279 0
-39 -1280 0
-288 -1280 0
39 288 1280 0
-289 -1281 0
-298 -1281 0
289 298 1281 0
-60 -1282 0
299 -1282 0
60 -299 1282 0
60 -1283 0
-299 -1283 0
-60 299 1283 0
-300 -1284 0
-301 -1284 0
300 301 1284 0
-40 -1285 0
302 -1285 0
40 -302 1285 0
40 -1286 0
-302 -1286 0
-40 302 1286 0
303 -1287 0
-304 -1287 0
-303 304 1287 0
-306 -1288 0
-307 -1288 0
306 307 1288 0
297 -1289 0
308 -1289 0
-297 -308 1289 0
-64 -1290 0
-309 -1290 0
64 309 1290 0
64 -1291 0
309 -1291 0
-64 -309 1291 0
-310 -1292 0
-311 -1292 0
310 311 1292 0
63 -1293 0
312 -1293 0
-63 -312 1293 0
61 -1294 0
62 -1294 0
-61 -62 1294 0
-61 -1295 0
-62 -1295 0
61 62 1295 0
